glpk/simple/simple.lp
\* Problem: into *\

Minimize
 groups: + Y(1,1) + Y(1,2) + Y(1,3) + Y(1,4) + Y(1,5) + Y(2,1) + Y(2,2)
 + Y(2,3) + Y(2,4) + Y(2,5)

Subject To
 checkFlow(1,2): + X(1,2,1) + X(1,2,2) = 1
 checkFlow(2,3): + X(2,3,1) + X(2,3,2) = 1
 checkFlow(3,4): + X(3,4,1) + X(3,4,2) = 1
 checkFlow(4,5): + X(4,5,1) + X(4,5,2) = 1
 sameFlow(1,3,4): + X(3,4,1) = -0
 sameFlow(1,4,5): + X(4,5,1) = -0
 sameFlow(2,1,2): + X(1,2,2) = -0
 deliver(1,1,2): - Y(1,1) + X(1,2,1) >= -0
 deliver(1,2,3): - Y(1,2) + X(2,3,1) >= -0
 deliver(2,2,3): - Y(2,2) + X(2,3,2) >= -0
 deliver(2,3,4): - Y(2,3) + X(3,4,2) >= -0
 deliver(2,4,5): - Y(2,4) + X(4,5,2) >= -0
 receive(1,1,2): + C(1,1) - 2 X(1,2,1) <= -0
 receive(1,2,3): + C(1,2) - 2 X(2,3,1) <= -0
 receive(2,2,3): + C(2,2) - 2 X(2,3,2) <= -0
 receive(2,3,4): + C(2,3) - 2 X(3,4,2) <= -0
 receive(2,4,5): + C(2,4) - 2 X(4,5,2) <= -0
 weight1(1,1,2): + C(1,2) + Y(1,1) - X(1,2,1) >= -0
 weight1(1,2,3): + C(1,3) + Y(1,2) - X(2,3,1) >= -0
 weight1(2,2,3): + C(2,3) + Y(2,2) - X(2,3,2) >= -0
 weight1(2,3,4): + C(2,4) + Y(2,3) - X(3,4,2) >= -0
 weight1(2,4,5): + C(2,5) + Y(2,4) - X(4,5,2) >= -0
 weight2(1,1,2): - C(1,2) - 2 Y(1,1) + 2 X(1,2,1) >= -0
 weight2(1,2,3): - C(1,3) - 2 Y(1,2) + 2 X(2,3,1) >= -0
 weight2(2,2,3): - C(2,3) - 2 Y(2,2) + 2 X(2,3,2) >= -0
 weight2(2,3,4): - C(2,4) - 2 Y(2,3) + 2 X(3,4,2) >= -0
 weight2(2,4,5): - C(2,5) - 2 Y(2,4) + 2 X(4,5,2) >= -0
 bindWeight1(1,1,2): - C(1,1) + C(1,2) - 2 Y(1,1) + 2 X(1,2,1) <= 3
 bindWeight1(1,2,3): - C(1,2) + C(1,3) - 2 Y(1,2) + 2 X(2,3,1) <= 3
 bindWeight1(2,2,3): - C(2,2) + C(2,3) - 2 Y(2,2) + 2 X(2,3,2) <= 3
 bindWeight1(2,3,4): - C(2,3) + C(2,4) - 2 Y(2,3) + 2 X(3,4,2) <= 3
 bindWeight1(2,4,5): - C(2,4) + C(2,5) - 2 Y(2,4) + 2 X(4,5,2) <= 3
 bindWeight2(1,1,2): - C(1,1) + C(1,2) + 2 Y(1,1) - 2 X(1,2,1) >= -1
 bindWeight2(1,2,3): - C(1,2) + C(1,3) + 2 Y(1,2) - 2 X(2,3,1) >= -1
 bindWeight2(2,2,3): - C(2,2) + C(2,3) + 2 Y(2,2) - 2 X(2,3,2) >= -1
 bindWeight2(2,3,4): - C(2,3) + C(2,4) + 2 Y(2,3) - 2 X(3,4,2) >= -1
 bindWeight2(2,4,5): - C(2,4) + C(2,5) + 2 Y(2,4) - 2 X(4,5,2) >= -1
 dispatchLast(1,2,3): + Y(1,2) - X(2,3,1) >= -0
 dispatchLast(2,4,5): + Y(2,4) - X(4,5,2) >= -0

Bounds
 0 <= Y(1,1) <= 1
 0 <= Y(1,2) <= 1
 0 <= Y(1,3) <= 1
 0 <= Y(1,4) <= 1
 0 <= Y(1,5) <= 1
 0 <= Y(2,1) <= 1
 0 <= Y(2,2) <= 1
 0 <= Y(2,3) <= 1
 0 <= Y(2,4) <= 1
 0 <= Y(2,5) <= 1
 0 <= X(1,2,1) <= 1
 0 <= X(1,2,2) <= 1
 0 <= X(2,3,1) <= 1
 0 <= X(2,3,2) <= 1
 0 <= X(3,4,1) <= 1
 0 <= X(3,4,2) <= 1
 0 <= X(4,5,1) <= 1
 0 <= X(4,5,2) <= 1

Generals
 Y(1,1)
 Y(1,2)
 Y(1,3)
 Y(1,4)
 Y(1,5)
 Y(2,1)
 Y(2,2)
 Y(2,3)
 Y(2,4)
 Y(2,5)
 X(1,2,1)
 X(1,2,2)
 X(2,3,1)
 X(2,3,2)
 X(3,4,1)
 X(3,4,2)
 X(4,5,1)
 X(4,5,2)

End
